200
100
100
100
99
99
98
98
97
97
96
96
96
96
96
96
96
95
95
94
94
92
92
92
92
92
92
92
91
91
91
90
89
89
89
89
89
87
86
85
85
84
84
84
84
83
83
83
83
83
81
81
80
80
80
80
79
79
79
79
78
78
78
78
77
77
77
77
77
77
76
76
76
76
76
75
75
75
75
74
74
74
74
73
72
72
72
70
70
70
70
70
69
69
69
68
68
67
67
66
65
65
65
65
64
64
64
64
64
63
62
62
61
60
60
60
60
60
60
60
59
59
59
58
58
58
58
57
57
55
55
55
53
53
53
52
52
52
52
51
51
49
49
49
49
49
49
49
48
48
48
48
48
46
46
45
45
45
45
44
44
44
44
43
43
43
43
43
43
42
42
42
41
40
40
40
40
40
39
38
38
38
38
37
37
35
34
34
34
34
33
33
33
32
32
32
31
30
30
30
30
30
